db/data/166492404977662297228848134832107719228.z3.out
sat
-------------------
5.820378989
